asp/input/in_30_15_9_2.lp
#const n = 30.
#const k = 15.
#const h = 9.
tile(1,9,10).
tile(2,7,15).
tile(3,2,2).
tile(4,6,8).
tile(5,7,3).
tile(6,7,8).
tile(7,7,15).
tile(8,1,15).
tile(9,6,1).
tile(10,3,3).
tile(11,6,10).
tile(12,4,3).
tile(13,10,7).
tile(14,7,2).
tile(15,9,2).
tile(16,3,8).
tile(17,6,3).
tile(18,12,2).
tile(19,8,10).
tile(20,6,3).
tile(21,15,7).
tile(22,2,10).
tile(23,14,6).
tile(24,1,7).
tile(25,12,1).
tile(26,1,6).
tile(27,1,14).
tile(28,10,3).
tile(29,14,4).
tile(30,12,2).
