instances/in_30_15_9_2.dzn
n = 30;
k = 15;
h = 9;
tiles = array2d(1..n, 1..2,
[ 9,10
, 7,15
, 2,2
, 6,8
, 7,3
, 7,8
, 7,15
, 1,15
, 6,1
, 3,3
, 6,10
, 4,3
, 10,7
, 7,2
, 9,2
, 3,8
, 6,3
, 12,2
, 8,10
, 6,3
, 15,7
, 2,10
, 14,6
, 1,7
, 12,1
, 1,6
, 1,14
, 10,3
, 14,4
, 12,2
]);